c SAT problem
p wcnf 215 1090
1 60 -61 0
1 75 76 0
1 -75 -3120 0
1 -90 -3105 0
1 -90 -105 0
1 -90 3150 0
1 -90 -3120 0
1 90 91 0
1 105 3105 0
1 105 3120 0
1 -105 -3090 0
1 105 -3135 0
1 3120 165 0
1 3120 105 0
1 3120 75 0
1 3120 -181 0
1 3120 60 0
1 -3135 -135 0
1 -3150 196 0
1 -3150 -75 0
1 -3150 -3151 0
1 -3150 -181 0
1 -3150 -151 0
1 -3150 90 0
1 -3150 3165 0
1 -3165 151 0
1 -3165 121 0
1 -3165 -90 0
1 -3165 60 0
1 -120 3105 0
1 -120 3075 0
1 120 -135 0
1 120 3090 0
1 -120 -3060 0
1 -120 -3135 0
1 -135 -3105 0
1 -135 -120 0
1 150 -3075 0
1 -150 165 0
1 150 -3045 0
1 -150 -3015 0
1 150 -3120 0
1 -150 3060 0
1 150 -3000 0
1 -165 -3105 0
1 165 -3075 0
1 165 166 0
1 -165 3015 0
1 3060 -225 0
1 3060 210 0
1 3060 -180 0
1 -3060 -3061 0
1 -3060 -120 0
1 3060 -90 0
1 -3060 255 0
1 3075 105 0
1 3075 -240 0
1 -3075 210 0
1 -3075 180 0
1 -3075 150 0
1 -3075 -90 0
1 -3090 196 0
1 3090 -165 0
1 3090 135 0
1 -3090 -240 0
1 3090 211 0
1 3090 -3091 0
1 3090 -150 0
1 3090 -120 0
1 -3105 -165 0
1 -3105 135 0
1 3105 105 0
1 -3105 -211 0
1 -3105 -150 0
1 180 -3045 0
1 180 -181 0
1 195 180 0
1 195 -3030 0
1 -225 3060 0
1 -225 -3000 0
1 3000 195 0
1 -3000 3015 0
1 -3000 300 0
1 -3000 210 0
1 -3000 -180 0
1 -3000 3001 0
1 3000 -315 0
1 3015 225 0
1 3015 -300 0
1 3015 -210 0
1 3015 -150 0
1 3015 -3000 0
1 -3015 -315 0
1 -3030 -225 0
1 -3030 -3045 0
1 3030 270 0
1 -3030 240 0
1 3030 3031 0
1 -3030 -315 0
1 3030 285 0
1 -3030 255 0
1 3045 225 0
1 -3045 210 0
1 3045 255 0
1 -76 -3300 0
1 76 -77 0
1 76 -3345 0
1 -76 61 0
1 -91 -3315 0
1 -106 3300 0
1 -106 3270 0
1 -106 -3285 0
1 106 3255 0
1 3300 197 0
1 3300 166 0
1 3300 3301 0
1 3300 136 0
1 3300 -106 0
1 3300 76 0
1 -3300 3315 0
1 3300 182 0
1 -3300 91 0
1 -3300 -61 0
1 -3315 3300 0
1 3315 197 0
1 3315 166 0
1 3315 136 0
1 -3315 76 0
1 3315 -151 0
1 3315 61 0
1 3330 167 0
1 -3330 -137 0
1 3330 76 0
1 3330 3345 0
1 3330 -182 0
1 3330 -152 0
1 -3330 61 0
1 -3345 -3330 0
1 -3345 197 0
1 3345 137 0
1 -3345 152 0
1 3345 122 0
1 -3345 -61 0
1 121 -3270 0
1 121 -3315 0
1 121 3165 0
1 -136 -135 0
1 136 -3240 0
1 -136 -3150 0
1 -136 -3315 0
1 136 3255 0
1 151 166 0
1 151 3270 0
1 151 -3225 0
1 -151 3195 0
1 -166 3300 0
1 166 3270 0
1 -166 167 0
1 -166 -3180 0
1 -166 3315 0
1 166 3285 0
1 166 151 0
1 166 3225 0
1 -3240 -241 0
1 3240 -151 0
1 -3240 -121 0
1 -3255 -256 0
1 3255 226 0
1 3255 -166 0
1 3255 -136 0
1 3255 3240 0
1 3255 -211 0
1 -3255 181 0
1 3255 -121 0
1 -3270 -256 0
1 3270 227 0
1 3270 197 0
1 3270 -166 0
1 -3270 -3271 0
1 3270 -106 0
1 -3270 -3285 0
1 3270 -91 0
1 3285 197 0
1 -3285 -166 0
1 -3285 241 0
1 -3285 -121 0
1 -181 -3105 0
1 181 3240 0
1 181 -3180 0
1 181 3150 0
1 181 180 0
1 -181 -182 0
1 -181 3165 0
1 -196 3105 0
1 196 -3210 0
1 -196 3180 0
1 -196 3120 0
1 -196 3090 0
1 -211 3255 0
1 211 -3225 0
1 -211 3195 0
1 -226 225 0
1 226 227 0
1 -226 -3240 0
1 -226 3180 0
1 226 3121 0
1 -226 3090 0
1 226 3225 0
1 226 3195 0
1 -3180 196 0
1 3180 -166 0
1 3180 -181 0
1 -3180 -151 0
1 3180 -3195 0
1 -3180 316 0
1 -3195 226 0
1 -3195 -270 0
1 3195 211 0
1 -3210 -256 0
1 -3210 -196 0
1 3210 166 0
1 3210 3211 0
1 -3210 301 0
1 3210 -271 0
1 -3210 -3225 0
1 3210 316 0
1 3210 -286 0
1 -3225 256 0
1 -3225 -226 0
1 -3225 3210 0
1 -3225 271 0
1 -3225 -241 0
1 3225 -3226 0
1 -3225 316 0
1 3225 -286 0
1 -240 -3136 0
1 240 -3105 0
1 240 -3075 0
1 240 -3180 0
1 240 3151 0
1 -240 3121 0
1 -240 -3030 0
1 240 255 0
1 255 -3105 0
1 255 3136 0
1 255 -3045 0
1 255 -3180 0
1 -255 240 0
1 255 3060 0
1 -255 -3030 0
1 -255 3195 0
1 -270 3136 0
1 -270 271 0
1 270 3091 0
1 270 -3195 0
1 -270 3166 0
1 -285 -3136 0
1 285 3045 0
1 -285 3180 0
1 285 270 0
1 285 3151 0
1 -285 3121 0
1 285 -3030 0
1 285 -3166 0
1 -3121 -3136 0
1 -3121 -226 0
1 3121 361 0
1 -3121 3120 0
1 -3121 211 0
1 -3121 -345 0
1 -3121 -315 0
1 3121 255 0
1 3136 3137 0
1 3136 361 0
1 -3136 -330 0
1 3136 240 0
1 3136 -3121 0
1 3136 211 0
1 -3136 376 0
1 3136 -315 0
1 3136 285 0
1 -3151 226 0
1 3151 301 0
1 -3151 270 0
1 -3151 -240 0
1 3151 3152 0
1 3151 346 0
1 -3151 3166 0
1 -3151 255 0
1 3166 270 0
1 3166 -3151 0
1 300 -3136 0
1 -300 -301 0
1 300 3030 0
1 315 -3045 0
1 315 300 0
1 315 3121 0
1 -315 -3061 0
1 315 3000 0
1 -330 3136 0
1 330 -3076 0
1 -330 -3046 0
1 -330 3121 0
1 -330 3091 0
1 -330 -3031 0
1 345 3136 0
1 345 3046 0
1 345 -3016 0
1 -345 330 0
1 345 -3121 0
1 -345 3031 0
1 345 3001 0
1 -3061 -420 0
1 3061 270 0
1 -3061 3062 0
1 3061 -315 0
1 3061 -285 0
1 -3076 420 0
1 3076 300 0
1 3076 -405 0
1 -3076 -375 0
1 -3076 -285 0
1 3091 -420 0
1 -3091 -3090 0
1 -3091 -315 0
1 3106 -270 0
1 3106 435 0
1 -3106 3091 0
1 -3106 -406 0
1 -360 3046 0
1 -375 -3046 0
1 375 -3016 0
1 375 3061 0
1 375 -3031 0
1 390 -3046 0
1 -390 391 0
1 390 3016 0
1 -390 -3061 0
1 390 3031 0
1 390 3001 0
1 -405 -390 0
1 -405 -3046 0
1 405 3016 0
1 -405 3001 0
1 3001 480 0
1 -3001 -495 0
1 3001 3000 0
1 -3001 345 0
1 -3016 3017 0
1 3016 495 0
1 3016 -405 0
1 3016 -345 0
1 -3016 3001 0
1 3031 -450 0
1 -3031 405 0
1 -3031 -3030 0
1 3031 -3032 0
1 3046 3047 0
1 -3046 360 0
1 3046 495 0
1 -3046 435 0
1 -62 -3525 0
1 62 3495 0
1 -62 -3510 0
1 77 76 0
1 77 -3480 0
1 -77 -62 0
1 -92 3435 0
1 -107 3465 0
1 107 3420 0
1 107 3480 0
1 107 -3450 0
1 -3480 -167 0
1 3480 107 0
1 3480 3481 0
1 -3495 -3480 0
1 -3495 122 0
1 -3510 -3511 0
1 -3510 77 0
1 -3510 62 0
1 3525 3526 0
1 3525 3510 0
1 3525 -62 0
1 -122 -3495 0
1 -122 3465 0
1 122 3450 0
1 122 3420 0
1 -137 -136 0
1 137 3465 0
1 -137 -3435 0
1 -137 -3450 0
1 -137 -122 0
1 152 3495 0
1 -152 -3465 0
1 152 -3435 0
1 -152 3405 0
1 -152 3375 0
1 -167 166 0
1 167 -3465 0
1 -167 3450 0
1 167 3420 0
1 -3420 -212 0
1 -3420 3421 0
1 -3435 257 0
1 -3435 -227 0
1 -3435 197 0
1 -3435 -137 0
1 3435 -242 0
1 -3435 -212 0
1 3435 182 0
1 -3435 3420 0
1 -3450 137 0
1 3450 3465 0
1 -3450 -3451 0
1 -3450 92 0
1 -3465 257 0
1 3465 -167 0
1 -3465 152 0
1 182 3360 0
1 -182 -3300 0
1 182 -197 0
1 -182 3270 0
1 -182 -3405 0
1 -182 3375 0
1 182 -3390 0
1 -197 -3330 0
1 197 -3300 0
1 -197 3345 0
1 -212 -3331 0
1 212 -3301 0
1 212 -3375 0
1 -212 -3346 0
1 -212 -211 0
1 212 3420 0
1 227 -3301 0
1 227 3316 0
1 -227 3420 0
1 -227 -3390 0
1 3360 3361 0
1 -3360 -197 0
1 -3360 -167 0
1 -3360 3375 0
1 -3360 182 0
1 -3360 -152 0
1 3375 -271 0
1 3375 3376 0
1 -3375 212 0
1 3375 182 0
1 3375 -152 0
1 3375 286 0
1 3390 -257 0
1 -3390 242 0
1 -3390 287 0
1 3405 197 0
1 3405 -167 0
1 3405 -272 0
1 -3405 242 0
1 -3405 -212 0
1 3405 317 0
1 -241 -3331 0
1 241 3301 0
1 -241 3270 0
1 241 3375 0
1 241 3346 0
1 -241 -3225 0
1 -256 -3360 0
1 -256 3301 0
1 -256 3270 0
1 256 3240 0
1 -256 241 0
1 256 -3346 0
1 -256 3316 0
1 -256 -3285 0
1 256 3255 0
1 -256 -255 0
1 271 -3331 0
1 271 272 0
1 271 3346 0
1 -271 -3256 0
1 -271 -286 0
1 286 -3271 0
1 286 -3241 0
1 -286 3375 0
1 -286 -3316 0
1 -286 3256 0
1 286 -285 0
1 -286 -287 0
1 -3301 -227 0
1 -3301 3302 0
1 3301 362 0
1 3301 -331 0
1 -3301 -301 0
1 3301 3316 0
1 -3301 -377 0
1 -3316 -256 0
1 3316 301 0
1 -3316 -241 0
1 3316 212 0
1 -3316 -316 0
1 -3331 256 0
1 3331 -302 0
1 -3331 -271 0
1 3331 -212 0
1 3331 -317 0
1 3331 286 0
1 -3346 332 0
1 -3346 -302 0
1 3346 241 0
1 3346 -3347 0
1 3346 212 0
1 3346 -377 0
1 3346 347 0
1 301 3301 0
1 -301 -3210 0
1 301 300 0
1 301 -302 0
1 -301 3286 0
1 -316 -3301 0
1 -316 -3271 0
1 -316 3195 0
1 316 301 0
1 -316 3151 0
1 316 -3316 0
1 -316 317 0
1 331 3301 0
1 -331 3271 0
1 331 330 0
1 -331 3316 0
1 331 3256 0
1 -331 -3196 0
1 -346 3301 0
1 346 -3271 0
1 -346 3241 0
1 346 3151 0
1 -346 -3316 0
1 346 3286 0
1 -346 -345 0
1 346 3226 0
1 -346 -347 0
1 -346 -3196 0
1 -3241 3256 0
1 -3241 331 0
1 -3241 -346 0
1 3241 286 0
1 3256 391 0
1 3256 301 0
1 3256 -3257 0
1 -3256 -316 0
1 3256 -286 0
1 3271 3270 0
1 3271 -3272 0
1 -3271 301 0
1 3271 271 0
1 3271 -407 0
1 -3271 286 0
1 3286 -421 0
1 3286 -362 0
1 -3286 -316 0
1 3286 -286 0
1 -361 3136 0
1 361 360 0
1 -361 3241 0
1 -361 3181 0
1 361 -3151 0
1 361 3091 0
1 361 -3196 0
1 361 -3166 0
1 -376 3106 0
1 -376 -361 0
1 -376 3241 0
1 376 -3151 0
1 -376 375 0
1 376 3256 0
1 376 -3226 0
1 376 3196 0
1 -391 -3137 0
1 -391 3241 0
1 -391 3211 0
1 391 -3122 0
1 -391 3091 0
1 391 406 0
1 406 -391 0
1 406 -3211 0
1 -406 3152 0
1 406 -3122 0
1 -406 407 0
1 -406 -3256 0
1 406 -3226 0
1 -3181 -391 0
1 3181 -3182 0
1 -3181 496 0
1 -3181 -435 0
1 3181 -406 0
1 3181 346 0
1 3181 3196 0
1 3196 -420 0
1 -3196 361 0
1 3196 -331 0
1 -3196 3181 0
1 -3196 496 0
1 -3196 -465 0
1 -3196 -406 0
1 3196 -376 0
1 -3196 -346 0
1 -3196 -3195 0
1 -3211 421 0
1 3211 331 0
1 -3211 3212 0
1 3211 496 0
1 -3226 481 0
1 -3226 -451 0
1 3226 391 0
1 -3226 -361 0
1 3226 -331 0
1 3226 -3211 0
1 3226 -436 0
1 -3226 376 0
1 -3226 3225 0
1 3226 -346 0
1 3226 -3227 0
1 -420 3137 0
1 420 -3152 0
1 420 3196 0
1 -435 -3106 0
1 435 -420 0
1 -435 -3076 0
1 -435 3046 0
1 435 436 0
1 -435 -3167 0
1 450 -451 0
1 450 3107 0
1 450 3077 0
1 450 3046 0
1 450 465 0
1 450 3092 0
1 -450 -3167 0
1 465 -450 0
1 465 -3107 0
1 -465 -3181 0
1 -465 3092 0
1 465 3062 0
1 465 3031 0
1 465 3196 0
1 465 -3167 0
1 3122 -480 0
1 -3122 -3137 0
1 -3122 -450 0
1 3122 525 0
1 3122 465 0
1 -3122 3121 0
1 -3122 -435 0
1 -3122 406 0
1 -3122 -541 0
1 -3137 -450 0
1 -3137 -391 0
1 -3137 -525 0
1 -3137 -435 0
1 3137 406 0
1 3137 510 0
1 3152 -481 0
1 3152 450 0
1 3152 391 0
1 3152 435 0
1 3152 406 0
1 3152 -541 0
1 3152 -3167 0
1 3167 420 0
1 3167 391 0
1 3167 556 0
1 -3167 -526 0
1 -3167 -435 0
1 3167 -541 0
1 480 -3137 0
1 480 -3122 0
1 495 3016 0
1 495 496 0
1 -495 3122 0
1 -495 3031 0
1 510 3077 0
1 -510 3122 0
1 -510 -3092 0
1 -510 -3032 0
1 510 511 0
1 -525 3077 0
1 -525 3017 0
1 525 -3032 0
1 -3062 -495 0
1 -3062 465 0
1 -3062 -540 0
1 3062 510 0
1 -3077 3076 0
1 -3077 555 0
1 -3077 -3062 0
1 3077 -540 0
1 3077 -510 0
1 3092 -480 0
1 -3092 -450 0
1 -3092 -586 0
1 -3092 495 0
1 3092 465 0
1 3092 -3091 0
1 -3092 -571 0
1 -3092 541 0
1 -3092 -510 0
1 3107 586 0
1 3107 -556 0
1 3107 -525 0
1 3107 495 0
1 -3107 465 0
1 3107 3092 0
1 3107 -571 0
1 -3107 -510 0
1 -540 -3047 0
1 540 3017 0
1 -540 555 0
1 -540 -3032 0
1 555 -556 0
1 555 3032 0
1 555 -3002 0
1 -555 540 0
1 570 -3077 0
1 570 -3047 0
1 570 585 0
1 -570 3017 0
1 570 3032 0
1 570 -3002 0
1 -570 -571 0
1 585 -3077 0
1 -585 3047 0
1 585 -586 0
1 585 3062 0
1 -585 -3032 0
1 3002 -585 0
1 3002 -3017 0
1 -3002 570 0
1 3002 -540 0
1 3017 -3016 0
1 -3017 -585 0
1 -3017 555 0
1 3017 540 0
1 3047 585 0
1 3047 -525 0
1 -3047 3032 0
1 3047 570 0
1 242 3526 0
1 242 -3496 0
1 242 3465 0
1 -242 -3405 0
1 242 -3511 0
1 242 -3450 0
1 242 -3420 0
1 -257 3496 0
1 257 3450 0
1 257 -3420 0
1 -257 3390 0
1 272 3496 0
1 -272 -3436 0
1 -272 -3405 0
1 -272 -3451 0
1 -272 3390 0
1 287 3496 0
1 287 -3481 0
1 287 -3390 0
1 -3481 -3496 0
1 3481 302 0
1 3481 272 0
1 -3481 3480 0
1 3496 257 0
1 3496 3495 0
1 3496 -332 0
1 3496 242 0
1 -3496 3481 0
1 -3496 -347 0
1 3496 317 0
1 3511 -257 0
1 3511 -272 0
1 3511 242 0
1 3526 -257 0
1 3526 -3525 0
1 3526 -242 0
1 -3526 287 0
1 -302 3360 0
1 302 3496 0
1 302 3375 0
1 302 -3481 0
1 302 3451 0
1 302 -317 0
1 317 -3390 0
1 317 -3331 0
1 317 3436 0
1 -317 3375 0
1 317 3481 0
1 -332 3466 0
1 332 -331 0
1 332 -3436 0
1 332 -3451 0
1 -332 -347 0
1 -347 -3331 0
1 347 -3496 0
1 -347 -332 0
1 -347 -3436 0
1 347 3376 0
1 347 3346 0
1 347 3481 0
1 -347 346 0
1 -3421 422 0
1 3421 362 0
1 -3421 3436 0
1 -3421 -302 0
1 3421 437 0
1 3421 407 0
1 -3421 -377 0
1 3421 317 0
1 3436 392 0
1 3436 362 0
1 -3436 -3437 0
1 3436 272 0
1 -3436 -347 0
1 3436 -3421 0
1 -3436 317 0
1 -3451 3466 0
1 3451 -332 0
1 3451 -302 0
1 3451 -3450 0
1 3466 -422 0
1 3466 -437 0
1 -3466 347 0
1 3466 287 0
1 362 3271 0
1 -362 -361 0
1 -362 3436 0
1 -362 3406 0
1 362 -3421 0
1 377 -3361 0
1 377 -3301 0
1 -377 362 0
1 377 3346 0
1 -377 3316 0
1 377 -3421 0
1 -392 3271 0
1 -392 -391 0
1 392 -3436 0
1 392 -3376 0
1 392 -3421 0
1 -407 3302 0
1 -407 -3271 0
1 407 392 0
1 407 3286 0
1 -407 406 0
1 407 3391 0
1 3361 3360 0
1 3361 482 0
1 -3361 451 0
1 -3361 -3362 0
1 -3361 392 0
1 3361 -497 0
1 3361 466 0
1 -3361 -407 0
1 3376 3361 0
1 -3376 392 0
1 -3376 466 0
1 3376 -407 0
1 3376 347 0
1 -3391 -3392 0
1 3391 -392 0
1 -3391 362 0
1 3391 332 0
1 3391 -3406 0
1 -3391 467 0
1 -3391 -377 0
1 -3391 3390 0
1 -3406 482 0
1 3406 422 0
1 3406 -407 0
1 3406 -377 0
1 3406 347 0
1 3406 -3391 0
1 -421 -3302 0
1 421 3376 0
1 -421 3347 0
1 436 421 0
1 -436 -3271 0
1 436 3376 0
1 436 435 0
1 -436 437 0
1 -436 -3286 0
1 -436 3226 0
1 -451 -450 0
1 -451 3302 0
1 451 466 0
1 451 -3287 0
1 -451 -3226 0
1 466 3361 0
1 466 -3332 0
1 -466 -3242 0
1 -466 465 0
1 466 467 0
1 -466 3226 0
1 3302 481 0
1 3302 451 0
1 3302 -3301 0
1 3302 511 0
1 3317 -481 0
1 3317 -451 0
1 3317 -557 0
1 -3317 -526 0
1 3317 -496 0
1 -3317 -3316 0
1 -3332 -482 0
1 -3332 527 0
1 -3332 436 0
1 -3347 -512 0
1 3347 421 0
1 3347 557 0
1 -3347 497 0
1 481 3302 0
1 -481 -3272 0
1 481 3211 0
1 -481 3181 0
1 -481 -496 0
1 481 -3317 0
1 481 3196 0
1 -496 -3272 0
1 496 3152 0
1 -496 3317 0
1 496 3287 0
1 496 -3226 0
1 496 -3196 0
1 -511 -3302 0
1 -511 3242 0
1 511 526 0
1 -511 -3182 0
1 -511 3197 0
1 -511 -3167 0
1 526 -3272 0
1 526 511 0
1 526 525 0
1 -526 3317 0
1 -3242 481 0
1 3242 451 0
1 3242 526 0
1 -3242 496 0
1 -3242 511 0
1 3257 -481 0
1 -3257 -451 0
1 3257 -586 0
1 -3257 3242 0
1 3257 -526 0
1 3257 496 0
1 -3257 -571 0
1 -3257 -541 0
1 3257 -511 0
1 -3272 3271 0
1 3272 -557 0
1 3272 -466 0
1 3272 -3287 0
1 3272 -572 0
1 3287 -451 0
1 3287 587 0
1 3287 -526 0
1 541 -3137 0
1 -541 3107 0
1 -541 -3242 0
1 541 -3212 0
1 541 3182 0
1 541 -3227 0
1 -556 -555 0
1 556 557 0
1 -556 -3182 0
1 556 3152 0
1 -556 -3227 0
1 556 -3167 0
1 -571 3182 0
1 -571 -570 0
1 -571 -572 0
1 -571 -3197 0
1 586 -585 0
1 586 3257 0
1 586 -3197 0
1 -3182 571 0
1 3182 511 0
1 3212 -556 0
1 -3212 571 0
1 3227 -3226 0
1 -3227 541 0
1 -422 3527 0
1 422 3466 0
1 422 437 0
1 -422 3512 0
1 422 3451 0
1 -422 3421 0
1 437 -3527 0
1 -437 -3497 0
1 -437 3436 0
1 437 3406 0
1 437 -436 0
1 437 -3482 0
1 -437 3421 0
1 -437 -3391 0
1 452 -3527 0
1 452 3497 0
1 452 3437 0
1 -452 -3512 0
1 -467 -3527 0
1 467 -3437 0
1 -467 -466 0
1 467 3452 0
1 467 -3422 0
1 467 -3391 0
1 3482 422 0
1 3482 3497 0
1 3482 -467 0
1 3482 -437 0
1 3482 -3481 0
1 -3497 482 0
1 -3497 497 0
1 -3497 3482 0
1 3512 -467 0
1 -3527 -3526 0
1 -3527 437 0
1 482 3332 0
1 -482 3497 0
1 482 -3376 0
1 482 497 0
1 482 -3347 0
1 -482 3482 0
1 -482 3391 0
1 -497 3361 0
1 -497 -482 0
1 -497 -3467 0
1 497 3437 0
1 497 -3406 0
1 497 -3376 0
1 497 3482 0
1 497 -3422 0
1 -497 3391 0
1 512 -3362 0
1 -512 -3497 0
1 512 3437 0
1 512 3377 0
1 -512 3347 0
1 512 -3482 0
1 512 3452 0
1 527 -512 0
1 527 -3362 0
1 -527 3332 0
1 527 -3437 0
1 527 526 0
1 527 3377 0
1 -527 -3482 0
1 -527 -3422 0
1 3422 3437 0
1 3422 -527 0
1 3422 497 0
1 -3437 512 0
1 -3437 -482 0
1 3437 -452 0
1 3437 -3436 0
1 3437 -497 0
1 3437 -467 0
1 3437 572 0
1 3452 452 0
1 -3452 -3467 0
1 3467 -512 0
1 3467 -482 0
1 -3467 -497 0
1 557 -3392 0
1 -557 556 0
1 557 -3437 0
1 -557 -3407 0
1 -572 -3272 0
1 572 3407 0
1 -572 3377 0
1 -572 -3287 0
1 -587 -572 0
1 587 3422 0
1 -3362 -512 0
1 3362 3361 0
1 -3362 -587 0
1 3362 557 0
1 -3362 -527 0
1 3377 527 0
1 3377 3376 0
1 3377 -572 0
1 -3392 -587 0
1 -3392 -557 0
1 3392 -527 0
1 3392 572 0
1 3407 3392 0
1 -3407 572 0
